2 2 1.5
2 1 1 43 2 1 64 2 71
2 2 1 21 2 35 1 2 43

10 5 5 1000000 
5 7 3 1000000 
5 4 7 1000000 
1000000 1000000 1000000 1000000 
1000000 1000000 1000000 1000000 
1000000 8 3 5 
1000000 5 8 5 
1000000 4 4 9 
